benchmarks/denorm/lcm/lcm_denorm_inv1_len5_4.smt2
;--------------------------------------------------------------------------
; Benchmark created with Zazu
; Benchmark: 		lcm_denorm_inv1_len5_4
; Created:   		2022-01-05 21:28
; Generator of the ideal: 
; 		 -u00*x00 + u*x + v*y - v00*y00
; Testing invariant: (-u00*x00 + u*x + v*y - v00*y00) * (v*x^3*y - u^2*v^3*x^2*y + u^2*v*x^2 - u^2*x - v*y^3)
;--------------------------------------------------------------------------

(set-logic NIA)
(set-option :produce-proofs true)

(declare-const u00 Int)
(declare-const v00 Int)
(declare-const x00 Int)
(declare-const y00 Int)

(assert 
	(exists
		((u Int) (v Int) (x Int) (y Int))
		(and
			(= (- (+ (* (- 1) u00 x00) (* u x) (* v y)) (* v00 y00)) 0)

			(or
				(not (= (* (- (+ (* (- 1) u00 x00) (* u (- x y)) (* (+ v u) y)) (* v00 y00)) (- (+ (- (* (+ v u) (- x y) (- x y) (- x y) y) (* u u (+ v u) (+ v u) (+ v u) (- x y) (- x y) y)) (* u u (+ v u) (- x y) (- x y))) (* u u (- x y)) (* (+ v u) y y y))) 0))
				(not (= (* (- (+ (* (- 1) u00 x00) (* (+ u v) x) (* v (- y x))) (* v00 y00)) (- (+ (- (* v x x x (- y x)) (* (+ u v) (+ u v) v v v x x (- y x))) (* (+ u v) (+ u v) v x x)) (* (+ u v) (+ u v) x) (* v (- y x) (- y x) (- y x)))) 0))
			)
		)
	)
)
(check-sat)
(get-proof)
(exit)
